p edge 60 176
e 1 6
e 1 8
e 1 10
e 1 31
e 1 45
e 1 57
e 2 12
e 2 25
e 2 28
e 2 40
e 2 45
e 2 57
e 3 6
e 3 15
e 3 22
e 3 40
e 3 57
e 4 6
e 5 8
e 5 11
e 5 14
e 5 17
e 5 29
e 5 30
e 5 46
e 5 51
e 5 53
e 6 31
e 6 36
e 6 40
e 7 22
e 7 30
e 7 54
e 7 60
e 8 12
e 8 43
e 8 50
e 9 12
e 9 18
e 9 22
e 9 40
e 9 42
e 9 44
e 9 60
e 10 19
e 10 26
e 10 42
e 10 49
e 10 52
e 10 54
e 10 59
e 11 33
e 11 56
e 11 60
e 12 30
e 12 40
e 12 52
e 12 54
e 13 18
e 13 26
e 13 36
e 13 40
e 13 49
e 13 51
e 13 54
e 14 20
e 14 23
e 14 39
e 14 49
e 14 54
e 14 57
e 15 44
e 15 57
e 16 19
e 16 21
e 16 37
e 16 40
e 16 49
e 16 51
e 16 58
e 17 20
e 17 29
e 17 32
e 17 36
e 17 39
e 17 44
e 17 47
e 18 23
e 18 26
e 18 32
e 18 36
e 18 43
e 18 44
e 18 56
e 19 32
e 19 38
e 19 59
e 20 24
e 20 32
e 20 43
e 20 52
e 20 54
e 20 56
e 21 24
e 21 29
e 21 30
e 21 38
e 21 41
e 21 43
e 22 30
e 22 37
e 22 38
e 22 39
e 22 50
e 23 28
e 24 38
e 24 42
e 24 46
e 25 36
e 25 48
e 26 34
e 26 36
e 26 40
e 26 45
e 27 38
e 28 30
e 28 37
e 28 58
e 29 33
e 29 35
e 29 45
e 30 55
e 31 36
e 31 37
e 31 46
e 31 48
e 31 50
e 31 56
e 32 42
e 32 53
e 32 60
e 33 34
e 33 44
e 33 49
e 33 50
e 33 52
e 34 35
e 34 40
e 35 46
e 35 47
e 35 51
e 37 44
e 37 45
e 37 54
e 38 39
e 38 44
e 38 46
e 39 55
e 39 60
e 41 45
e 41 47
e 41 56
e 41 59
e 42 52
e 42 55
e 42 57
e 43 50
e 43 59
e 45 54
e 46 52
e 47 48
e 49 57
e 50 58
e 51 53
e 52 58
e 54 60
